
--- Job UCM_h.gms Start 02/05/16 14:23:58 24.3.3 r48116 WIN-VS8 x86 32bit/MS Windows
GAMS 24.3.3   Copyright (C) 1987-2014 GAMS Development. All rights reserved
Licensee: DG Joint Research Centre                       W141202:1041CO-WIN
          European Commission                                        DC9812
--- Starting compilation
--- UCM_h.gms(127) 2 Mb
--- GDXin=E:\svn\dispaset-joinup\Simulation\Inputs.gdx
--- UCM_h.gms(978) 4 Mb
--- Starting execution: elapsed 0:00:00.010
--- UCM_h.gms(824) 5 Mb
--- Generating MIP model UCM_SIMPLE
--- UCM_h.gms(842) 15 Mb
--- LOOPS FOR/WHILE = 1
---   45,736 rows  44,257 columns  205,445 non-zeroes
---   4,416 discrete-columns
--- Executing CPLEX: elapsed 0:00:00.621

IBM ILOG CPLEX   24.3.3 r48116 Released Sep 19, 2014 VS8 x86 32bit/MS Windows 
--- GAMS/Cplex licensed for continuous and discrete problems.
Cplex 12.6.0.1

Reading data...
Starting Cplex...
Space for names approximately 4.37 Mb
Use option 'names no' to turn use of names off
Tried aggregator 2 times.
MIP Presolve eliminated 19482 rows and 26314 columns.
MIP Presolve modified 15556 coefficients.
Aggregator did 481 substitutions.
Reduced MIP has 25773 rows, 17462 columns, and 108609 nonzeros.
Reduced MIP has 3480 binaries, 0 generals, 0 SOSs, and 0 indicators.
Presolve time = 0.22 sec. (134.38 ticks)
Found incumbent of value 2.4036854e+010 after 0.32 sec. (177.41 ticks)
Probing time = 0.01 sec. (5.41 ticks)
Tried aggregator 1 time.
MIP Presolve modified 1242 coefficients.
Reduced MIP has 25773 rows, 17462 columns, and 108609 nonzeros.
Reduced MIP has 3480 binaries, 0 generals, 0 SOSs, and 0 indicators.
Presolve time = 0.11 sec. (52.70 ticks)
Probing fixed 0 vars, tightened 471 bounds.
Probing time = 0.03 sec. (8.92 ticks)
Clique table members: 1536.
MIP emphasis: balance optimality and feasibility.
MIP search method: dynamic search.
Parallel mode: none, using 1 thread.
Tried aggregator 1 time.
LP Presolve eliminated 571 rows and 762 columns.
Aggregator did 288 substitutions.
Reduced LP has 24914 rows, 16412 columns, and 105559 nonzeros.
Presolve time = 0.03 sec. (20.96 ticks)
Initializing dual steep norms . . .

Iteration log . . .
Iteration:     1   Dual objective     =        598459.056026
Perturbation started.
Iteration:   404   Dual objective     =      15461058.534631
Iteration:   878   Dual objective     =      15480018.777018
Iteration:  1452   Dual objective     =      15480097.158389
Iteration:  1910   Dual objective     =      15480097.158701
Iteration:  2292   Dual objective     =      15480097.158988
Iteration:  2771   Dual objective     =      15480144.189288
Iteration:  3222   Dual objective     =      15480206.268529
Iteration:  3602   Dual objective     =      15480748.369431
Iteration:  3931   Dual objective     =      15481506.055584
Removing perturbation.
Initializing dual steep norms . . .
Root relaxation solution time = 0.37 sec. (191.01 ticks)

        Nodes                                         Cuts/
   Node  Left     Objective  IInf  Best Integer    Best Bound    ItCnt     Gap

*     0+    0                      2.40369e+010        0.0000     4190  100.00%
Found incumbent of value 2.4036854e+010 after 0.93 sec. (468.39 ticks)
      0     0  1.54816e+007   446  2.40369e+010  1.54816e+007     4190   99.94%
*     0+    0                      6.88719e+007  1.54816e+007     4190   77.52%
Found incumbent of value 6.8871860e+007 after 1.08 sec. (569.26 ticks)
      0     0  1.54822e+007   184  6.88719e+007     Cuts: 452     5485   77.52%
*     0+    0                      2.21380e+007  1.54822e+007     5485   30.07%
Found incumbent of value 2.2137976e+007 after 1.71 sec. (1000.42 ticks)
      0     0  1.54822e+007   223  2.21380e+007     Cuts: 698     6940   30.07%
      0     0  1.54822e+007   113  2.21380e+007      Cuts: 87     7888   30.07%
*     0+    0                      1.82179e+007  1.54822e+007     7888   15.02%
Found incumbent of value 1.8217886e+007 after 3.21 sec. (2447.27 ticks)
*     0+    0                      1.66762e+007  1.54822e+007     7888    7.16%
Found incumbent of value 1.6676199e+007 after 3.29 sec. (2489.89 ticks)
*     0+    0                      1.66208e+007  1.54822e+007     7888    6.85%
Found incumbent of value 1.6620789e+007 after 3.29 sec. (2505.12 ticks)
      0     0  1.54822e+007   173  1.66208e+007     Cuts: 427     8995    6.85%
*     0+    0                      1.66116e+007  1.54822e+007     8995    6.80%
Found incumbent of value 1.6611636e+007 after 4.29 sec. (3477.83 ticks)
*     0+    0                      1.55074e+007  1.54822e+007     8995    0.16%
Found incumbent of value 1.5507411e+007 after 4.44 sec. (3618.59 ticks)

GUB cover cuts applied:  7
Clique cuts applied:  5
Cover cuts applied:  134
Implied bound cuts applied:  97
Flow cuts applied:  43
Mixed integer rounding cuts applied:  199
Zero-half cuts applied:  75
Gomory fractional cuts applied:  15

Root node processing (before b&c):
  Real time             =    4.44 sec. (3622.48 ticks)
Sequential b&c:
  Real time             =    0.00 sec. (0.00 ticks)
                          ------------
Total (root+branch&cut) =    4.44 sec. (3622.48 ticks)
MIP status(102): integer optimal, tolerance
Cplex Time: 4.45sec (det. 3622.61 ticks)
Fixing integer variables, and solving final LP...
Tried aggregator 1 time.
LP Presolve eliminated 42796 rows and 39618 columns.
Aggregator did 544 substitutions.
Reduced LP has 2396 rows, 4095 columns, and 8765 nonzeros.
Presolve time = 0.04 sec. (26.66 ticks)
Initializing dual steep norms . . .

Iteration log . . .
Iteration:     1   Dual objective     =       8932478.726682
Iteration:   256   Dual objective     =      15473921.158561
Fixed MIP status(1): optimal
Cplex Time: 0.08sec (det. 50.09 ticks)

Solution satisfies tolerances.

MIP Solution:     15507411.161107    (8995 iterations, 0 nodes)
Final Solve:      15507411.161104    (398 iterations)

Best possible:    15482178.251735
Absolute gap:        25232.909372
Relative gap:            0.001627

--- Restarting execution
--- UCM_h.gms(842) 5 Mb
--- Reading solution for model UCM_SIMPLE
--- UCM_h.gms(842) 8 Mb
--- Executing after solve: elapsed 0:00:05.608
--- UCM_h.gms(824) 9 Mb
--- Generating MIP model UCM_SIMPLE
--- UCM_h.gms(842) 19 Mb
--- LOOPS FOR/WHILE = 2
---   45,708 rows  44,257 columns  205,429 non-zeroes
---   4,416 discrete-columns
--- Executing CPLEX: elapsed 0:00:06.279

IBM ILOG CPLEX   24.3.3 r48116 Released Sep 19, 2014 VS8 x86 32bit/MS Windows 
--- GAMS/Cplex licensed for continuous and discrete problems.
Cplex 12.6.0.1

Reading data...
Starting Cplex...
Space for names approximately 4.43 Mb
Use option 'names no' to turn use of names off
Tried aggregator 2 times.
MIP Presolve eliminated 19312 rows and 26213 columns.
MIP Presolve modified 15582 coefficients.
Aggregator did 481 substitutions.
Reduced MIP has 25915 rows, 17563 columns, and 109104 nonzeros.
Reduced MIP has 3494 binaries, 0 generals, 0 SOSs, and 0 indicators.
Presolve time = 0.23 sec. (134.42 ticks)
Found incumbent of value 2.2200149e+010 after 0.33 sec. (177.69 ticks)
Probing fixed 0 vars, tightened 447 bounds.
Probing time = 0.03 sec. (10.04 ticks)
Tried aggregator 1 time.
MIP Presolve eliminated 1 rows and 0 columns.
MIP Presolve modified 1739 coefficients.
Reduced MIP has 25914 rows, 17563 columns, and 109102 nonzeros.
Reduced MIP has 3494 binaries, 0 generals, 0 SOSs, and 0 indicators.
Presolve time = 0.11 sec. (53.09 ticks)
Probing time = 0.01 sec. (5.77 ticks)
Clique table members: 1560.
MIP emphasis: balance optimality and feasibility.
MIP search method: dynamic search.
Parallel mode: none, using 1 thread.
Tried aggregator 1 time.
LP Presolve eliminated 573 rows and 765 columns.
Aggregator did 288 substitutions.
Reduced LP has 25053 rows, 16510 columns, and 106045 nonzeros.
Presolve time = 0.03 sec. (21.06 ticks)
Initializing dual steep norms . . .

Iteration log . . .
Iteration:     1   Dual objective     =       1016375.322315
Iteration:   450   Dual objective     =      13464863.933909
Iteration:   812   Dual objective     =      13588768.982445
Perturbation started.
Iteration:  1010   Dual objective     =      13589465.060737
Iteration:  1321   Dual objective     =      13589465.060887
Iteration:  1874   Dual objective     =      13589465.061159
Iteration:  2286   Dual objective     =      13589465.061407
Iteration:  2784   Dual objective     =      13589465.062167
Iteration:  3169   Dual objective     =      13589465.063066
Iteration:  3505   Dual objective     =      13589465.063693
Removing perturbation.
Initializing dual steep norms . . .
Root relaxation solution time = 0.28 sec. (200.31 ticks)

        Nodes                                         Cuts/
   Node  Left     Objective  IInf  Best Integer    Best Bound    ItCnt     Gap

*     0+    0                      2.22001e+010    10912.3860     3772  100.00%
Found incumbent of value 2.2200149e+010 after 0.85 sec. (477.49 ticks)
      0     0  1.35895e+007   151  2.22001e+010  1.35895e+007     3772   99.94%
*     0+    0                      2.34167e+007  1.35895e+007     3772   41.97%
Found incumbent of value 2.3416667e+007 after 1.04 sec. (606.92 ticks)
      0     0  1.35895e+007   128  2.34167e+007     Cuts: 125     5245   41.97%
*     0+    0                      1.73429e+007  1.35895e+007     5245   21.64%
Found incumbent of value 1.7342918e+007 after 2.44 sec. (1908.03 ticks)
      0     0  1.35895e+007   158  1.73429e+007     Cuts: 457     6240   21.64%
*     0+    0                      1.43686e+007  1.35895e+007     6240    5.42%
Found incumbent of value 1.4368556e+007 after 2.88 sec. (2202.01 ticks)
      0     0  1.35895e+007    68  1.43686e+007      Cuts: 46     6603    5.42%
*     0+    0                      1.37476e+007  1.35895e+007     6603    1.15%
Found incumbent of value 1.3747642e+007 after 3.54 sec. (2803.53 ticks)

GUB cover cuts applied:  6
Clique cuts applied:  2
Cover cuts applied:  49
Implied bound cuts applied:  25
Flow cuts applied:  23
Mixed integer rounding cuts applied:  80
Zero-half cuts applied:  33
Gomory fractional cuts applied:  11

Root node processing (before b&c):
  Real time             =    3.57 sec. (2815.09 ticks)
Sequential b&c:
  Real time             =    0.00 sec. (0.00 ticks)
                          ------------
Total (root+branch&cut) =    3.57 sec. (2815.09 ticks)
MIP status(102): integer optimal, tolerance
Cplex Time: 3.57sec (det. 2815.21 ticks)
Fixing integer variables, and solving final LP...
Tried aggregator 1 time.
LP Presolve eliminated 43044 rows and 40056 columns.
Aggregator did 445 substitutions.
Reduced LP has 2219 rows, 3756 columns, and 8052 nonzeros.
Presolve time = 0.03 sec. (26.29 ticks)
Initializing dual steep norms . . .

Iteration log . . .
Iteration:     1   Dual objective     =       7579467.486920
Iteration:   214   Dual objective     =      13624592.796202
Fixed MIP status(1): optimal
Cplex Time: 0.12sec (det. 49.32 ticks)

Solution satisfies tolerances.

MIP Solution:     13747641.912457    (6603 iterations, 0 nodes)
Final Solve:      13747641.912459    (312 iterations)

Best possible:    13589465.060738
Absolute gap:       158176.851719
Relative gap:            0.011506

--- Restarting execution
--- UCM_h.gms(842) 10 Mb
--- Reading solution for model UCM_SIMPLE
--- UCM_h.gms(842) 13 Mb
--- Executing after solve: elapsed 0:00:10.495
--- UCM_h.gms(937) 14 Mb

GDXXRW           24.3.3 r48116 Released Sep 19, 2014 VS8 x86 32bit/MS Windows 
Input file : E:\svn\dispaset-joinup\Simulation\Inputs.gdx
Output file: E:\svn\dispaset-joinup\Simulation\Results.xlsx
Total time = 611 Ms
--- UCM_h.gms(938) 14 Mb

GDXXRW           24.3.3 r48116 Released Sep 19, 2014 VS8 x86 32bit/MS Windows 
Input file : E:\svn\dispaset-joinup\Simulation\Inputs.gdx
Output file: E:\svn\dispaset-joinup\Simulation\Results.xlsx
Adding new sheet: PowerCapacity
Total time = 631 Ms
--- UCM_h.gms(939) 14 Mb

GDXXRW           24.3.3 r48116 Released Sep 19, 2014 VS8 x86 32bit/MS Windows 
Input file : E:\svn\dispaset-joinup\Simulation\Inputs.gdx
Output file: E:\svn\dispaset-joinup\Simulation\Results.xlsx
Exception not caught: OLE error 800A03EC

Any changes made to the spreadsheet were not saved
Total time = 571 Ms
--- UCM_h.gms(940) 14 Mb

GDXXRW           24.3.3 r48116 Released Sep 19, 2014 VS8 x86 32bit/MS Windows 
Input file : E:\svn\dispaset-joinup\Simulation\Inputs.gdx
Output file: E:\svn\dispaset-joinup\Simulation\Results.xlsx
Adding new sheet: RampDownMaximum
Total time = 621 Ms
--- UCM_h.gms(941) 14 Mb

GDXXRW           24.3.3 r48116 Released Sep 19, 2014 VS8 x86 32bit/MS Windows 
Input file : E:\svn\dispaset-joinup\Simulation\Inputs.gdx
Output file: E:\svn\dispaset-joinup\Simulation\Results.xlsx
Adding new sheet: RampShutDownMaximum
Total time = 641 Ms
--- UCM_h.gms(942) 14 Mb

GDXXRW           24.3.3 r48116 Released Sep 19, 2014 VS8 x86 32bit/MS Windows 
Input file : E:\svn\dispaset-joinup\Simulation\Inputs.gdx
Output file: E:\svn\dispaset-joinup\Simulation\Results.xlsx
Adding new sheet: RampStartUpMaximum
Total time = 611 Ms
--- UCM_h.gms(943) 14 Mb

GDXXRW           24.3.3 r48116 Released Sep 19, 2014 VS8 x86 32bit/MS Windows 
Input file : E:\svn\dispaset-joinup\Simulation\Inputs.gdx
Output file: E:\svn\dispaset-joinup\Simulation\Results.xlsx
Adding new sheet: RampUpMaximum
Total time = 621 Ms
--- UCM_h.gms(944) 14 Mb

GDXXRW           24.3.3 r48116 Released Sep 19, 2014 VS8 x86 32bit/MS Windows 
Input file : E:\svn\dispaset-joinup\Simulation\Inputs.gdx
Output file: E:\svn\dispaset-joinup\Simulation\Results.xlsx
Adding new sheet: TimeUpInitial
Total time = 631 Ms
--- UCM_h.gms(945) 14 Mb

GDXXRW           24.3.3 r48116 Released Sep 19, 2014 VS8 x86 32bit/MS Windows 
Input file : E:\svn\dispaset-joinup\Simulation\Inputs.gdx
Output file: E:\svn\dispaset-joinup\Simulation\Results.xlsx
Adding new sheet: TimeDownInitial
Total time = 641 Ms
--- UCM_h.gms(946) 14 Mb

GDXXRW           24.3.3 r48116 Released Sep 19, 2014 VS8 x86 32bit/MS Windows 
Input file : E:\svn\dispaset-joinup\Simulation\Inputs.gdx
Output file: E:\svn\dispaset-joinup\Simulation\Results.xlsx
Adding new sheet: TimeUpMinimum
Total time = 641 Ms
--- UCM_h.gms(947) 14 Mb

GDXXRW           24.3.3 r48116 Released Sep 19, 2014 VS8 x86 32bit/MS Windows 
Input file : E:\svn\dispaset-joinup\Simulation\Inputs.gdx
Output file: E:\svn\dispaset-joinup\Simulation\Results.xlsx
Adding new sheet: TimeDownMinimum
Total time = 631 Ms
--- UCM_h.gms(948) 14 Mb

GDXXRW           24.3.3 r48116 Released Sep 19, 2014 VS8 x86 32bit/MS Windows 
Input file : E:\svn\dispaset-joinup\Simulation\Inputs.gdx
Output file: E:\svn\dispaset-joinup\Simulation\Results.xlsx
Adding new sheet: Reserve
Total time = 621 Ms
--- UCM_h.gms(949) 14 Mb

GDXXRW           24.3.3 r48116 Released Sep 19, 2014 VS8 x86 32bit/MS Windows 
Input file : E:\svn\dispaset-joinup\Simulation\Inputs.gdx
Output file: E:\svn\dispaset-joinup\Simulation\Results.xlsx
Adding new sheet: StorageCapacity
Total time = 611 Ms
--- UCM_h.gms(950) 14 Mb

GDXXRW           24.3.3 r48116 Released Sep 19, 2014 VS8 x86 32bit/MS Windows 
Input file : E:\svn\dispaset-joinup\Simulation\Inputs.gdx
Output file: E:\svn\dispaset-joinup\Simulation\Results.xlsx
Adding new sheet: StorageInflow
Total time = 631 Ms
--- UCM_h.gms(951) 14 Mb

GDXXRW           24.3.3 r48116 Released Sep 19, 2014 VS8 x86 32bit/MS Windows 
Input file : E:\svn\dispaset-joinup\Simulation\Inputs.gdx
Output file: E:\svn\dispaset-joinup\Simulation\Results.xlsx
Total time = 611 Ms
--- UCM_h.gms(952) 14 Mb

GDXXRW           24.3.3 r48116 Released Sep 19, 2014 VS8 x86 32bit/MS Windows 
Input file : E:\svn\dispaset-joinup\Simulation\Inputs.gdx
Output file: E:\svn\dispaset-joinup\Simulation\Results.xlsx
Adding new sheet: LoadShedding
Total time = 621 Ms
--- UCM_h.gms(953) 14 Mb

GDXXRW           24.3.3 r48116 Released Sep 19, 2014 VS8 x86 32bit/MS Windows 
Input file : E:\svn\dispaset-joinup\Simulation\Inputs.gdx
Output file: E:\svn\dispaset-joinup\Simulation\Results.xlsx
Adding new sheet: FlowMaximum
Total time = 631 Ms
--- UCM_h.gms(954) 14 Mb

GDXXRW           24.3.3 r48116 Released Sep 19, 2014 VS8 x86 32bit/MS Windows 
Input file : E:\svn\dispaset-joinup\Simulation\Inputs.gdx
Output file: E:\svn\dispaset-joinup\Simulation\Results.xlsx
Adding new sheet: AvailabilityFactor
Total time = 681 Ms
--- UCM_h.gms(955) 14 Mb

GDXXRW           24.3.3 r48116 Released Sep 19, 2014 VS8 x86 32bit/MS Windows 
Input file : E:\svn\dispaset-joinup\Simulation\Inputs.gdx
Output file: E:\svn\dispaset-joinup\Simulation\Results.xlsx
Adding new sheet: OutageFactor
Total time = 671 Ms
--- UCM_h.gms(956) 14 Mb

GDXXRW           24.3.3 r48116 Released Sep 19, 2014 VS8 x86 32bit/MS Windows 
Input file : E:\svn\dispaset-joinup\Simulation\Inputs.gdx
Output file: E:\svn\dispaset-joinup\Simulation\Results.xlsx
Adding new sheet: Demand
Total time = 651 Ms
--- UCM_h.gms(957) 14 Mb

GDXXRW           24.3.3 r48116 Released Sep 19, 2014 VS8 x86 32bit/MS Windows 
Input file : E:\svn\dispaset-joinup\Simulation\Inputs.gdx
Output file: E:\svn\dispaset-joinup\Simulation\Results.xlsx
Adding new sheet: PartLoadMin
Total time = 661 Ms
--- UCM_h.gms(959) 14 Mb

GDXXRW           24.3.3 r48116 Released Sep 19, 2014 VS8 x86 32bit/MS Windows 
Input file : E:\svn\dispaset-joinup\Simulation\Results.gdx
Output file: E:\svn\dispaset-joinup\Simulation\Results.xlsx
Adding new sheet: Power
Total time = 641 Ms
--- UCM_h.gms(960) 14 Mb

GDXXRW           24.3.3 r48116 Released Sep 19, 2014 VS8 x86 32bit/MS Windows 
Input file : E:\svn\dispaset-joinup\Simulation\Results.gdx
Output file: E:\svn\dispaset-joinup\Simulation\Results.xlsx
Total time = 631 Ms
--- UCM_h.gms(961) 14 Mb

GDXXRW           24.3.3 r48116 Released Sep 19, 2014 VS8 x86 32bit/MS Windows 
Input file : E:\svn\dispaset-joinup\Simulation\Results.gdx
Output file: E:\svn\dispaset-joinup\Simulation\Results.xlsx
Total time = 631 Ms
--- UCM_h.gms(963) 14 Mb

GDXXRW           24.3.3 r48116 Released Sep 19, 2014 VS8 x86 32bit/MS Windows 
Input file : E:\svn\dispaset-joinup\Simulation\Results.gdx
Output file: E:\svn\dispaset-joinup\Simulation\Results.xlsx
Adding new sheet: CurtailedPower
Total time = 631 Ms
--- UCM_h.gms(964) 14 Mb

GDXXRW           24.3.3 r48116 Released Sep 19, 2014 VS8 x86 32bit/MS Windows 
Input file : E:\svn\dispaset-joinup\Simulation\Results.gdx
Output file: E:\svn\dispaset-joinup\Simulation\Results.xlsx
Adding new sheet: ShedLoad
Total time = 631 Ms
--- UCM_h.gms(965) 14 Mb

GDXXRW           24.3.3 r48116 Released Sep 19, 2014 VS8 x86 32bit/MS Windows 
Input file : E:\svn\dispaset-joinup\Simulation\Results.gdx
Output file: E:\svn\dispaset-joinup\Simulation\Results.xlsx
Adding new sheet: Committed
Total time = 671 Ms
--- UCM_h.gms(966) 14 Mb

GDXXRW           24.3.3 r48116 Released Sep 19, 2014 VS8 x86 32bit/MS Windows 
Input file : E:\svn\dispaset-joinup\Simulation\Results.gdx
Output file: E:\svn\dispaset-joinup\Simulation\Results.xlsx
Adding new sheet: Flow
Total time = 661 Ms
--- UCM_h.gms(967) 14 Mb

GDXXRW           24.3.3 r48116 Released Sep 19, 2014 VS8 x86 32bit/MS Windows 
Input file : E:\svn\dispaset-joinup\Simulation\Results.gdx
Output file: E:\svn\dispaset-joinup\Simulation\Results.xlsx
Total time = 731 Ms
--- UCM_h.gms(968) 14 Mb

GDXXRW           24.3.3 r48116 Released Sep 19, 2014 VS8 x86 32bit/MS Windows 
Input file : E:\svn\dispaset-joinup\Simulation\Results.gdx
Output file: E:\svn\dispaset-joinup\Simulation\Results.xlsx
Adding new sheet: StorageInput
Total time = 681 Ms
--- UCM_h.gms(969) 14 Mb

GDXXRW           24.3.3 r48116 Released Sep 19, 2014 VS8 x86 32bit/MS Windows 
Input file : E:\svn\dispaset-joinup\Simulation\Results.gdx
Output file: E:\svn\dispaset-joinup\Simulation\Results.xlsx
Adding new sheet: StorageLevel
Total time = 661 Ms
--- UCM_h.gms(970) 14 Mb

GDXXRW           24.3.3 r48116 Released Sep 19, 2014 VS8 x86 32bit/MS Windows 
Input file : E:\svn\dispaset-joinup\Simulation\Results.gdx
Output file: E:\svn\dispaset-joinup\Simulation\Results.xlsx
Adding new sheet: SystemCost
Total time = 811 Ms
--- UCM_h.gms(971) 14 Mb

GDXXRW           24.3.3 r48116 Released Sep 19, 2014 VS8 x86 32bit/MS Windows 
Input file : E:\svn\dispaset-joinup\Simulation\Results.gdx
Output file: E:\svn\dispaset-joinup\Simulation\Results.xlsx
Adding new sheet: LostLoad_MaxPower
Total time = 671 Ms
--- UCM_h.gms(972) 14 Mb

GDXXRW           24.3.3 r48116 Released Sep 19, 2014 VS8 x86 32bit/MS Windows 
Input file : E:\svn\dispaset-joinup\Simulation\Results.gdx
Output file: E:\svn\dispaset-joinup\Simulation\Results.xlsx
Adding new sheet: LostLoad_MinPower
Total time = 651 Ms
--- UCM_h.gms(973) 14 Mb

GDXXRW           24.3.3 r48116 Released Sep 19, 2014 VS8 x86 32bit/MS Windows 
Input file : E:\svn\dispaset-joinup\Simulation\Results.gdx
Output file: E:\svn\dispaset-joinup\Simulation\Results.xlsx
Adding new sheet: LostLoad_Reserve2D
Total time = 661 Ms
--- UCM_h.gms(974) 14 Mb

GDXXRW           24.3.3 r48116 Released Sep 19, 2014 VS8 x86 32bit/MS Windows 
Input file : E:\svn\dispaset-joinup\Simulation\Results.gdx
Output file: E:\svn\dispaset-joinup\Simulation\Results.xlsx
Adding new sheet: LostLoad_Reserve2U
Total time = 661 Ms
--- UCM_h.gms(975) 14 Mb

GDXXRW           24.3.3 r48116 Released Sep 19, 2014 VS8 x86 32bit/MS Windows 
Input file : E:\svn\dispaset-joinup\Simulation\Results.gdx
Output file: E:\svn\dispaset-joinup\Simulation\Results.xlsx
Adding new sheet: LostLoad_RampUp
Total time = 661 Ms
--- UCM_h.gms(976) 14 Mb

GDXXRW           24.3.3 r48116 Released Sep 19, 2014 VS8 x86 32bit/MS Windows 
Input file : E:\svn\dispaset-joinup\Simulation\Results.gdx
Output file: E:\svn\dispaset-joinup\Simulation\Results.xlsx
Adding new sheet: LostLoad_RampDown
Total time = 671 Ms
*** Status: Normal completion
--- Job UCM_h.gms Stop 02/05/16 14:24:35 elapsed 0:00:37.173
